c Standarized MaxSat Instance
c{
c "sha1sum": "4c3de64fc2fae301eb2d287663ef845ed1956899",
c "nvars": 163,
c "ncls": 843,
c "total_lits": 1668,
c "nhards": 772,
c "nhard_nlits": 1597,
c "nhard_len_stats":
c    { "min": 2,
c      "max": 4,
c      "ave": 2.0687,
c      "stddev": 0.3166 },
c "nsofts": 71,
c "nsoft_nlits": 71,
c "nsoft_len_stats":
c    { "min": 1,
c      "max": 1,
c      "ave": 1.0000,
c      "stddev": 0.0000 },
c "nsoft_wts": 17,
c "soft_wt_stats":
c    { "min": 5,
c      "max": 400,
c      "ave": 164.6479,
c      "stddev": 164.5316 }
c}
c------------------------------------------------------------
c ./driverlog01bc.wcsp
c PSEUDOBOOLEAN 12091
c LOWER BOUND 200
h 2 3 4 0
h -2 -3 0
h -2 -4 0
h -3 -2 0
h -3 -4 0
h -4 -2 0
h -4 -3 0
h 5 6 7 0
h -5 -6 0
h -5 -7 0
h -6 -5 0
h -6 -7 0
h -7 -5 0
h -7 -6 0
h 8 9 10 0
h -8 -9 0
h -8 -10 0
h -9 -8 0
h -9 -10 0
h -10 -8 0
h -10 -9 0
h 13 14 15 16 0
h -13 -14 0
h -13 -15 0
h -13 -16 0
h -14 -13 0
h -14 -15 0
h -14 -16 0
h -15 -13 0
h -15 -14 0
h -15 -16 0
h -16 -13 0
h -16 -14 0
h -16 -15 0
h 17 18 19 20 0
h -17 -18 0
h -17 -19 0
h -17 -20 0
h -18 -17 0
h -18 -19 0
h -18 -20 0
h -19 -17 0
h -19 -18 0
h -19 -20 0
h -20 -17 0
h -20 -18 0
h -20 -19 0
h 21 22 23 24 0
h -21 -22 0
h -21 -23 0
h -21 -24 0
h -22 -21 0
h -22 -23 0
h -22 -24 0
h -23 -21 0
h -23 -22 0
h -23 -24 0
h -24 -21 0
h -24 -22 0
h -24 -23 0
h 25 26 27 0
h -25 -26 0
h -25 -27 0
h -26 -25 0
h -26 -27 0
h -27 -25 0
h -27 -26 0
h 28 29 30 0
h -28 -29 0
h -28 -30 0
h -29 -28 0
h -29 -30 0
h -30 -28 0
h -30 -29 0
h 31 32 33 0
h -31 -32 0
h -31 -33 0
h -32 -31 0
h -32 -33 0
h -33 -31 0
h -33 -32 0
h 34 35 36 0
h -34 -35 0
h -34 -36 0
h -35 -34 0
h -35 -36 0
h -36 -34 0
h -36 -35 0
h 37 38 39 40 0
h -37 -38 0
h -37 -39 0
h -37 -40 0
h -38 -37 0
h -38 -39 0
h -38 -40 0
h -39 -37 0
h -39 -38 0
h -39 -40 0
h -40 -37 0
h -40 -38 0
h -40 -39 0
h 41 42 43 44 0
h -41 -42 0
h -41 -43 0
h -41 -44 0
h -42 -41 0
h -42 -43 0
h -42 -44 0
h -43 -41 0
h -43 -42 0
h -43 -44 0
h -44 -41 0
h -44 -42 0
h -44 -43 0
h 49 50 51 0
h -49 -50 0
h -49 -51 0
h -50 -49 0
h -50 -51 0
h -51 -49 0
h -51 -50 0
h 52 53 54 55 0
h -52 -53 0
h -52 -54 0
h -52 -55 0
h -53 -52 0
h -53 -54 0
h -53 -55 0
h -54 -52 0
h -54 -53 0
h -54 -55 0
h -55 -52 0
h -55 -53 0
h -55 -54 0
h 56 57 58 59 0
h -56 -57 0
h -56 -58 0
h -56 -59 0
h -57 -56 0
h -57 -58 0
h -57 -59 0
h -58 -56 0
h -58 -57 0
h -58 -59 0
h -59 -56 0
h -59 -57 0
h -59 -58 0
h 60 61 62 0
h -60 -61 0
h -60 -62 0
h -61 -60 0
h -61 -62 0
h -62 -60 0
h -62 -61 0
h 63 64 65 0
h -63 -64 0
h -63 -65 0
h -64 -63 0
h -64 -65 0
h -65 -63 0
h -65 -64 0
h 66 67 68 0
h -66 -67 0
h -66 -68 0
h -67 -66 0
h -67 -68 0
h -68 -66 0
h -68 -67 0
h 69 70 71 0
h -69 -70 0
h -69 -71 0
h -70 -69 0
h -70 -71 0
h -71 -69 0
h -71 -70 0
h 72 73 74 75 0
h -72 -73 0
h -72 -74 0
h -72 -75 0
h -73 -72 0
h -73 -74 0
h -73 -75 0
h -74 -72 0
h -74 -73 0
h -74 -75 0
h -75 -72 0
h -75 -73 0
h -75 -74 0
h 76 77 78 79 0
h -76 -77 0
h -76 -78 0
h -76 -79 0
h -77 -76 0
h -77 -78 0
h -77 -79 0
h -78 -76 0
h -78 -77 0
h -78 -79 0
h -79 -76 0
h -79 -77 0
h -79 -78 0
h 83 84 85 0
h -83 -84 0
h -83 -85 0
h -84 -83 0
h -84 -85 0
h -85 -83 0
h -85 -84 0
h 88 89 90 0
h -88 -89 0
h -88 -90 0
h -89 -88 0
h -89 -90 0
h -90 -88 0
h -90 -89 0
h 91 92 93 94 0
h -91 -92 0
h -91 -93 0
h -91 -94 0
h -92 -91 0
h -92 -93 0
h -92 -94 0
h -93 -91 0
h -93 -92 0
h -93 -94 0
h -94 -91 0
h -94 -92 0
h -94 -93 0
h 95 96 97 0
h -95 -96 0
h -95 -97 0
h -96 -95 0
h -96 -97 0
h -97 -95 0
h -97 -96 0
h 98 99 100 0
h -98 -99 0
h -98 -100 0
h -99 -98 0
h -99 -100 0
h -100 -98 0
h -100 -99 0
h 101 102 103 0
h -101 -102 0
h -101 -103 0
h -102 -101 0
h -102 -103 0
h -103 -101 0
h -103 -102 0
h 104 105 106 0
h -104 -105 0
h -104 -106 0
h -105 -104 0
h -105 -106 0
h -106 -104 0
h -106 -105 0
h 107 108 109 110 0
h -107 -108 0
h -107 -109 0
h -107 -110 0
h -108 -107 0
h -108 -109 0
h -108 -110 0
h -109 -107 0
h -109 -108 0
h -109 -110 0
h -110 -107 0
h -110 -108 0
h -110 -109 0
h 111 112 113 114 0
h -111 -112 0
h -111 -113 0
h -111 -114 0
h -112 -111 0
h -112 -113 0
h -112 -114 0
h -113 -111 0
h -113 -112 0
h -113 -114 0
h -114 -111 0
h -114 -112 0
h -114 -113 0
h 118 119 120 0
h -118 -119 0
h -118 -120 0
h -119 -118 0
h -119 -120 0
h -120 -118 0
h -120 -119 0
h 123 124 125 0
h -123 -124 0
h -123 -125 0
h -124 -123 0
h -124 -125 0
h -125 -123 0
h -125 -124 0
h 126 127 128 0
h -126 -127 0
h -126 -128 0
h -127 -126 0
h -127 -128 0
h -128 -126 0
h -128 -127 0
h 129 130 131 0
h -129 -130 0
h -129 -131 0
h -130 -129 0
h -130 -131 0
h -131 -129 0
h -131 -130 0
h 132 133 134 0
h -132 -133 0
h -132 -134 0
h -133 -132 0
h -133 -134 0
h -134 -132 0
h -134 -133 0
h 135 136 137 0
h -135 -136 0
h -135 -137 0
h -136 -135 0
h -136 -137 0
h -137 -135 0
h -137 -136 0
h 138 139 140 141 0
h -138 -139 0
h -138 -140 0
h -138 -141 0
h -139 -138 0
h -139 -140 0
h -139 -141 0
h -140 -138 0
h -140 -139 0
h -140 -141 0
h -141 -138 0
h -141 -139 0
h -141 -140 0
h 142 143 144 145 0
h -142 -143 0
h -142 -144 0
h -142 -145 0
h -143 -142 0
h -143 -144 0
h -143 -145 0
h -144 -142 0
h -144 -143 0
h -144 -145 0
h -145 -142 0
h -145 -143 0
h -145 -144 0
h 149 150 151 0
h -149 -150 0
h -149 -151 0
h -150 -149 0
h -150 -151 0
h -151 -149 0
h -151 -150 0
h -1 -2 0
h -1 -3 0
h -1 -4 0
h 1 -7 0
h -1 -7 0
h 1 -10 0
h -1 -10 0
h -1 11 0
h 1 12 0
h 1 46 0
h -1 46 0
h -4 -13 0
h -2 -17 0
h -3 -21 0
h -7 -28 0
h -6 -34 0
h -5 -37 0
h -6 45 0
h -7 46 0
h -10 -25 0
h -9 -31 0
h -8 -41 0
h -9 45 0
h -10 46 0
h -11 -12 0
h -11 -14 0
h -11 -15 0
h -11 -16 0
h -11 -18 0
h -11 -19 0
h -11 -20 0
h -11 -22 0
h -11 -23 0
h -11 -24 0
h -11 48 0
h -11 81 0
h -11 82 0
h -12 47 0
h -12 81 0
h -12 82 0
h -14 -18 0
h -14 -19 0
h -14 -20 0
h -15 -18 0
h -15 -19 0
h -15 -20 0
h -16 -18 0
h -16 -19 0
h -16 -20 0
h -14 -22 0
h -14 -23 0
h -14 -24 0
h -15 -22 0
h -15 -23 0
h -15 -24 0
h -16 -22 0
h -16 -23 0
h -16 -24 0
h -16 48 0
h -14 -49 0
h -15 -52 0
h -18 -22 0
h -18 -23 0
h -18 -24 0
h -19 -22 0
h -19 -23 0
h -19 -24 0
h -20 -22 0
h -20 -23 0
h -20 -24 0
h -20 -49 0
h -18 -52 0
h -19 -56 0
h -24 -52 0
h -22 -56 0
h -23 -83 0
h -26 -32 0
h -26 -33 0
h -27 -32 0
h -27 -33 0
h -26 -42 0
h -26 -43 0
h -26 -44 0
h -27 -42 0
h -27 -43 0
h -27 -44 0
h -26 -60 0
h -27 -76 0
h -27 82 0
h -29 -35 0
h -29 -36 0
h -30 -35 0
h -30 -36 0
h -29 -38 0
h -29 -39 0
h -29 -40 0
h -30 -38 0
h -30 -39 0
h -30 -40 0
h -29 -63 0
h -30 -72 0
h -30 82 0
h -32 -42 0
h -32 -43 0
h -32 -44 0
h -33 -42 0
h -33 -43 0
h -33 -44 0
h -32 -66 0
h -33 -76 0
h -33 80 0
h -35 -38 0
h -35 -39 0
h -35 -40 0
h -36 -38 0
h -36 -39 0
h -36 -40 0
h -35 -69 0
h -36 -72 0
h -36 80 0
h -40 -63 0
h -39 -69 0
h -38 -72 0
h -39 80 0
h -40 82 0
h -44 -60 0
h -43 -66 0
h -42 -76 0
h -43 80 0
h -44 82 0
h -45 80 0
h -46 82 0
h -47 87 0
h -48 -50 0
h -48 -51 0
h -48 -53 0
h -48 -54 0
h -48 -55 0
h -48 -57 0
h -48 -58 0
h -48 -59 0
h -48 -84 0
h -48 -85 0
h -48 86 0
h -50 -53 0
h -50 -54 0
h -50 -55 0
h -51 -53 0
h -51 -54 0
h -51 -55 0
h -50 -57 0
h -50 -58 0
h -50 -59 0
h -51 -57 0
h -51 -58 0
h -51 -59 0
h -50 -84 0
h -50 -85 0
h -51 -84 0
h -51 -85 0
h -50 86 0
h -51 -88 0
h -53 -57 0
h -53 -58 0
h -53 -59 0
h -54 -57 0
h -54 -58 0
h -54 -59 0
h -55 -57 0
h -55 -58 0
h -55 -59 0
h -53 -84 0
h -53 -85 0
h -54 -84 0
h -54 -85 0
h -55 -84 0
h -55 -85 0
h -55 86 0
h -53 -88 0
h -54 -91 0
h -57 -84 0
h -57 -85 0
h -58 -84 0
h -58 -85 0
h -59 -84 0
h -59 -85 0
h -59 -88 0
h -57 -91 0
h -58 -118 0
h -61 -67 0
h -61 -68 0
h -62 -67 0
h -62 -68 0
h -61 -77 0
h -61 -78 0
h -61 -79 0
h -62 -77 0
h -62 -78 0
h -62 -79 0
h -61 -95 0
h -62 -111 0
h -62 117 0
h -64 -70 0
h -64 -71 0
h -65 -70 0
h -65 -71 0
h -64 -73 0
h -64 -74 0
h -64 -75 0
h -65 -73 0
h -65 -74 0
h -65 -75 0
h -64 -98 0
h -65 -107 0
h -65 117 0
h -67 -77 0
h -67 -78 0
h -67 -79 0
h -68 -77 0
h -68 -78 0
h -68 -79 0
h -67 -101 0
h -68 -111 0
h -68 115 0
h -70 -73 0
h -70 -74 0
h -70 -75 0
h -71 -73 0
h -71 -74 0
h -71 -75 0
h -70 -104 0
h -71 -107 0
h -71 115 0
h -75 -98 0
h -74 -104 0
h -73 -107 0
h -74 115 0
h -75 117 0
h -79 -95 0
h -78 -101 0
h -77 -111 0
h -78 115 0
h -79 117 0
h -80 115 0
h -81 116 0
h -82 117 0
h -85 -91 0
h -84 -118 0
h -86 -89 0
h -86 -90 0
h -86 -92 0
h -86 -93 0
h -86 -94 0
h -86 -119 0
h -86 -120 0
h -86 122 0
h -87 121 0
h -89 -92 0
h -89 -93 0
h -89 -94 0
h -90 -92 0
h -90 -93 0
h -90 -94 0
h -89 -119 0
h -89 -120 0
h -90 -119 0
h -90 -120 0
h -89 122 0
h -90 -123 0
h -92 -119 0
h -92 -120 0
h -93 -119 0
h -93 -120 0
h -94 -119 0
h -94 -120 0
h -94 122 0
h -92 -123 0
h -93 -149 0
h -96 -102 0
h -96 -103 0
h -97 -102 0
h -97 -103 0
h -96 -112 0
h -96 -113 0
h -96 -114 0
h -97 -112 0
h -97 -113 0
h -97 -114 0
h -96 -126 0
h -97 -142 0
h -97 148 0
h -99 -105 0
h -99 -106 0
h -100 -105 0
h -100 -106 0
h -99 -108 0
h -99 -109 0
h -99 -110 0
h -100 -108 0
h -100 -109 0
h -100 -110 0
h -99 -129 0
h -100 -138 0
h -100 148 0
h -102 -112 0
h -102 -113 0
h -102 -114 0
h -103 -112 0
h -103 -113 0
h -103 -114 0
h -102 -132 0
h -103 -142 0
h -103 146 0
h -105 -108 0
h -105 -109 0
h -105 -110 0
h -106 -108 0
h -106 -109 0
h -106 -110 0
h -105 -135 0
h -106 -138 0
h -106 146 0
h -110 -129 0
h -109 -135 0
h -108 -138 0
h -109 146 0
h -110 148 0
h -114 -126 0
h -113 -132 0
h -112 -142 0
h -113 146 0
h -114 148 0
h -115 146 0
h -116 147 0
h -117 148 0
h -120 -123 0
h -119 -149 0
h -121 153 0
h -122 -124 0
h -122 -125 0
h -122 -150 0
h -122 -151 0
h -122 152 0
h -124 -150 0
h -124 -151 0
h -125 -150 0
h -125 -151 0
h -124 152 0
h -125 163 0
h -127 -133 0
h -127 -134 0
h -128 -133 0
h -128 -134 0
h -127 -143 0
h -127 -144 0
h -127 -145 0
h -128 -143 0
h -128 -144 0
h -128 -145 0
h -127 154 0
h -128 159 0
h -128 162 0
h -130 -136 0
h -130 -137 0
h -131 -136 0
h -131 -137 0
h -130 -139 0
h -130 -140 0
h -130 -141 0
h -131 -139 0
h -131 -140 0
h -131 -141 0
h -130 155 0
h -131 158 0
h -131 162 0
h -133 -143 0
h -133 -144 0
h -133 -145 0
h -134 -143 0
h -134 -144 0
h -134 -145 0
h -133 156 0
h -134 159 0
h -134 160 0
h -136 -139 0
h -136 -140 0
h -136 -141 0
h -137 -139 0
h -137 -140 0
h -137 -141 0
h -136 157 0
h -137 158 0
h -137 160 0
h -141 155 0
h -140 157 0
h -139 158 0
h -140 160 0
h -141 162 0
h -145 154 0
h -144 156 0
h -143 159 0
h -144 160 0
h -145 162 0
h -146 160 0
h -147 161 0
h -148 162 0
h -151 152 0
h -150 163 0
h -152 -163 0
h -154 -156 0
h -154 -159 0
h -155 -157 0
h -155 -158 0
h -156 -159 0
h -157 -158 0
10 1 0
400 -3 0
350 -4 0
45 -6 0
50 -7 0
20 -9 0
35 -10 0
5 -11 0
5 -12 0
320 -15 0
340 -16 0
400 -19 0
350 -20 0
370 -23 0
400 -24 0
30 -27 0
35 -30 0
25 -33 0
40 -36 0
45 -39 0
50 -40 0
20 -43 0
35 -44 0
400 -47 0
300 -48 0
320 -51 0
400 -54 0
350 -55 0
370 -58 0
400 -59 0
30 -62 0
35 -65 0
25 -68 0
40 -71 0
45 -74 0
50 -75 0
20 -78 0
35 -79 0
360 -85 0
320 -86 0
320 -87 0
400 -90 0
380 -93 0
400 -94 0
30 -97 0
35 -100 0
25 -103 0
40 -106 0
45 -109 0
50 -110 0
20 -113 0
35 -114 0
360 -120 0
340 -121 0
400 -122 0
380 -125 0
30 -128 0
35 -131 0
25 -134 0
40 -137 0
45 -140 0
50 -141 0
20 -144 0
35 -145 0
360 -151 0
380 -152 0
400 -153 0
30 -154 0
35 -155 0
25 -156 0
40 -157 0
